NAME : ../File/prFile/tspFile/tsp_file24.tsp.460.tour
COMMENT : Length = 460
COMMENT : Found by LKH-3 [Keld Helsgaun] Wed Jun 14 17:47:18 2023
TYPE : TOUR
DIMENSION : 30
TOUR_SECTION
1
9
19
2
29
20
27
14
3
28
12
4
21
18
13
10
15
24
25
6
26
11
23
7
5
22
30
16
8
17
-1
EOF
